p tw 191 385
1 143
1 144
1 184
1 185
2 36
2 72
2 73
2 81
2 82
2 149
2 150
2 179
2 180
3 66
3 67
3 139
3 140
3 180
3 181
4 88
4 89
4 190
4 191
5 53
5 54
5 75
5 76
5 82
5 83
5 130
5 131
5 167
5 168
6 65
6 138
6 139
6 178
6 179
7 93
7 94
7 107
7 108
8 77
8 78
8 89
9 74
9 75
9 136
9 137
9 176
10 111
10 134
10 174
10 175
11 99
11 100
11 119
11 120
11 156
12 61
12 62
12 68
12 69
12 80
12 81
12 112
12 113
12 135
12 136
13 54
13 55
13 169
13 170
14 46
14 47
14 104
14 105
14 121
14 122
14 150
14 151
15 67
15 117
15 140
15 141
15 152
15 153
15 182
15 183
16 45
16 46
16 124
16 125
16 160
16 161
17 56
17 57
17 86
17 87
17 110
17 111
18 90
18 91
18 116
19 47
19 48
19 125
19 126
19 162
19 163
20 106
20 107
20 165
20 166
21 64
21 69
21 85
21 86
22 142
22 143
22 183
22 184
23 49
23 50
23 128
23 129
23 164
23 165
24 103
24 104
24 123
24 124
24 148
24 149
24 159
24 160
25 63
25 64
25 84
25 85
26 88
26 176
26 177
27 57
27 58
27 87
27 97
27 98
27 155
27 156
28 31
28 65
28 66
28 71
28 72
28 79
28 138
28 178
29 44
29 102
29 148
30 44
30 45
30 70
30 71
30 79
30 80
30 123
30 157
30 158
31 70
31 102
31 103
31 157
32 50
32 51
32 127
32 128
33 113
33 114
33 121
33 135
34 95
34 96
34 146
34 147
34 188
34 189
35 52
35 53
35 129
35 130
35 166
35 167
36 62
36 63
36 83
36 84
36 90
36 115
36 116
37 48
37 49
37 92
37 93
37 105
37 106
37 126
37 127
37 151
37 152
37 163
37 164
38 141
38 142
38 185
38 186
39 117
39 118
39 122
39 153
39 154
40 100
40 101
40 120
41 76
41 77
41 118
41 119
41 144
41 145
41 187
41 188
41 190
41 191
42 59
42 60
42 101
42 133
42 134
42 172
42 173
43 55
43 56
43 109
43 110
43 132
43 133
43 154
43 155
43 170
43 171
44 45
45 46
46 47
47 48
48 49
49 50
50 51
51 52
52 53
53 54
54 55
55 56
56 57
57 58
58 59
59 60
60 175
61 62
61 112
62 63
63 64
65 66
66 67
68 69
68 92
70 71
71 72
72 73
73 74
74 75
75 76
76 77
77 78
78 91
79 80
80 81
81 82
82 83
83 84
84 85
85 86
86 87
88 89
90 91
92 93
93 94
94 95
95 96
96 97
97 98
98 99
99 100
100 101
102 103
103 104
104 105
105 106
106 107
107 108
108 109
109 110
110 111
112 113
113 114
114 115
115 116
117 118
118 119
119 120
121 122
123 124
124 125
125 126
126 127
127 128
128 129
129 130
130 131
131 132
132 133
133 134
135 136
136 137
137 177
138 139
139 140
140 141
141 142
142 143
143 144
144 145
145 146
146 147
147 189
148 149
149 150
150 151
151 152
152 153
153 154
154 155
155 156
157 158
158 159
159 160
160 161
161 162
162 163
163 164
164 165
165 166
166 167
167 168
168 169
169 170
170 171
171 172
172 173
173 174
174 175
176 177
178 179
179 180
180 181
181 182
182 183
183 184
184 185
185 186
186 187
187 188
188 189
190 191
